Geographic Exponential Decay
20 12 238 71 68 65 66 287 203 98 147 194 81 221 80 176 84 64 199 102 157
p edge 320 1174
e 0 199 87.0
e 0 219 1.0
e 0 306 4.0
e 1 111 1.0
e 1 300 1.0
e 1 87 4.0
e 2 195 4.0
e 2 224 2.0
e 3 199 24.0
e 3 315 1.0
e 3 316 1.0
e 4 232 1.0
e 4 146 2.0
e 4 54 4.0
e 5 61 11.0
e 5 153 10.0
e 6 191 19.0
e 6 116 9.0
e 6 286 5.0
e 6 301 11.0
e 6 234 6.0
e 7 223 5.0
e 7 263 5.0
e 7 76 5.0
e 8 34 16.0
e 8 248 1.0
e 8 95 10.0
e 8 258 1.0
e 8 195 2.0
e 9 303 22.0
e 9 142 11.0
e 9 228 10.0
e 9 231 6.0
e 9 174 14.0
e 9 176 32.0
e 9 166 12.0
e 9 41 14.0
e 9 59 3.0
e 9 187 6.0
e 10 73 7.0
e 10 130 8.0
e 10 155 2.0
e 10 33 10.0
e 10 281 3.0
e 11 300 1.0
e 11 121 2.0
e 12 67 33.0
e 12 112 99.0
e 12 254 19.0
e 12 43 25.0
e 12 295 99.0
e 12 312 38.0
e 12 84 45.0
e 12 260 47.0
e 12 299 90.0
e 12 113 30.0
e 12 169 51.0
e 12 202 5.0
e 12 91 52.0
e 12 234 38.0
e 12 20 83.0
e 12 196 6.0
e 12 190 18.0
e 12 166 50.0
e 12 283 84.0
e 12 205 75.0
e 12 167 66.0
e 12 92 23.0
e 12 258 77.0
e 12 199 44.0
e 12 253 20.0
e 12 310 86.0
e 12 16 77.0
e 12 143 11.0
e 12 148 60.0
e 12 286 70.0
e 12 304 71.0
e 12 156 63.0
e 12 162 4.0
e 12 123 95.0
e 12 246 93.0
e 12 87 13.0
e 12 56 88.0
e 13 63 21.0
e 13 301 15.0
e 13 118 11.0
e 13 176 10.0
e 13 12 89.0
e 13 168 1.0
e 13 33 8.0
e 13 34 9.0
e 13 158 11.0
e 13 54 11.0
e 14 197 3.0
e 14 167 1.0
e 14 71 42.0
e 15 14 2.0
e 15 109 1.0
e 16 318 6.0
e 16 64 36.0
e 16 319 2.0
e 16 197 5.0
e 17 126 2.0
e 17 311 2.0
e 18 92 3.0
e 18 43 2.0
e 19 282 3.0
e 19 53 1.0
e 20 180 1.0
e 21 311 3.0
e 21 286 1.0
e 22 293 1.0
e 22 24 2.0
e 23 258 1.0
e 23 199 60.0
e 24 215 3.0
e 25 114 5.0
e 25 20 4.0
e 25 266 1.0
e 26 150 1.0
e 26 251 1.0
e 27 133 2.0
e 27 17 1.0
e 27 20 1.0
e 27 94 3.0
e 27 242 17.0
e 28 38 2.0
e 28 83 1.0
e 29 223 4.0
e 29 43 5.0
e 29 37 1.0
e 30 111 8.0
e 30 294 9.0
e 30 79 1.0
e 30 303 3.0
e 30 238 17.0
e 31 215 7.0
e 31 113 7.0
e 31 176 48.0
e 31 260 5.0
e 31 248 11.0
e 32 5 2.0
e 32 267 1.0
e 33 241 46.0
e 34 196 19.0
e 34 257 11.0
e 34 270 21.0
e 34 222 4.0
e 34 145 16.0
e 34 213 11.0
e 34 90 20.0
e 34 201 11.0
e 35 84 14.0
e 35 231 1.0
e 36 118 2.0
e 36 303 2.0
e 37 164 7.0
e 38 102 25.0
e 38 31 11.0
e 39 308 1.0
e 39 187 5.0
e 39 293 1.0
e 40 286 2.0
e 40 182 2.0
e 41 207 9.0
e 41 299 9.0
e 41 150 6.0
e 41 288 1.0
e 42 304 1.0
e 42 138 1.0
e 44 256 1.0
e 44 246 2.0
e 45 203 77.0
e 45 54 1.0
e 46 252 5.0
e 46 157 71.0
e 46 78 5.0
e 47 111 1.0
e 47 157 12.0
e 47 78 5.0
e 48 58 2.0
e 48 78 2.0
e 49 6 5.0
e 49 187 5.0
e 50 184 1.0
e 50 4 5.0
e 50 170 5.0
e 51 151 1.0
e 51 67 1.0
e 52 266 2.0
e 52 177 2.0
e 52 48 6.0
e 53 15 2.0
e 55 10 6.0
e 55 253 1.0
e 56 3 3.0
e 56 292 1.0
e 57 165 2.0
e 57 256 2.0
e 58 238 31.0
e 59 299 1.0
e 60 223 1.0
e 60 22 1.0
e 61 164 14.0
e 61 128 3.0
e 61 279 6.0
e 61 32 9.0
e 62 208 5.0
e 62 229 1.0
e 63 215 2.0
e 64 21 39.0
e 64 310 82.0
e 64 125 89.0
e 64 131 92.0
e 64 259 88.0
e 64 81 27.0
e 64 255 30.0
e 64 134 15.0
e 64 306 62.0
e 64 307 81.0
e 64 198 71.0
e 64 70 30.0
e 64 111 26.0
e 64 243 23.0
e 64 294 46.0
e 64 118 82.0
e 64 250 47.0
e 64 90 1.0
e 64 139 6.0
e 64 106 86.0
e 64 107 56.0
e 64 140 47.0
e 64 2 84.0
e 64 82 52.0
e 64 252 76.0
e 64 92 96.0
e 64 91 85.0
e 64 55 45.0
e 64 94 67.0
e 64 47 7.0
e 64 101 47.0
e 64 266 6.0
e 64 36 68.0
e 64 240 62.0
e 64 98 53.0
e 64 270 72.0
e 65 171 37.0
e 65 3 84.0
e 65 270 96.0
e 65 127 42.0
e 65 193 84.0
e 65 184 77.0
e 65 276 6.0
e 65 32 84.0
e 65 19 71.0
e 65 126 67.0
e 65 265 29.0
e 65 194 48.0
e 65 159 78.0
e 65 285 62.0
e 65 148 79.0
e 65 143 62.0
e 65 132 69.0
e 65 140 86.0
e 65 268 38.0
e 65 156 32.0
e 65 267 62.0
e 65 308 21.0
e 65 180 9.0
e 65 84 83.0
e 65 71 39.0
e 65 160 54.0
e 65 72 82.0
e 65 251 52.0
e 65 121 4.0
e 65 231 4.0
e 65 301 41.0
e 65 168 68.0
e 65 220 94.0
e 65 145 69.0
e 65 191 2.0
e 65 192 38.0
e 65 97 83.0
e 66 69 64.0
e 66 303 5.0
e 66 158 97.0
e 66 252 67.0
e 66 280 21.0
e 66 93 15.0
e 66 29 74.0
e 66 55 93.0
e 66 97 35.0
e 66 38 21.0
e 66 155 54.0
e 66 226 18.0
e 66 268 24.0
e 66 129 45.0
e 66 83 15.0
e 66 277 68.0
e 66 246 66.0
e 66 294 96.0
e 66 190 1.0
e 66 304 98.0
e 66 12 25.0
e 66 281 59.0
e 66 126 97.0
e 66 21 28.0
e 66 170 16.0
e 66 47 23.0
e 66 260 93.0
e 66 127 10.0
e 66 136 72.0
e 66 192 44.0
e 66 193 31.0
e 66 5 2.0
e 66 100 11.0
e 66 80 24.0
e 66 318 7.0
e 66 185 64.0
e 66 231 42.0
e 68 184 76.0
e 68 83 57.0
e 68 101 66.0
e 68 85 57.0
e 68 304 38.0
e 68 217 78.0
e 68 94 13.0
e 68 211 45.0
e 68 38 57.0
e 68 277 34.0
e 68 187 68.0
e 68 197 45.0
e 68 275 64.0
e 68 140 81.0
e 68 45 55.0
e 68 81 16.0
e 68 135 81.0
e 68 65 50.0
e 68 8 94.0
e 68 154 26.0
e 68 272 4.0
e 68 219 21.0
e 68 234 65.0
e 68 32 89.0
e 68 158 40.0
e 68 139 22.0
e 68 136 75.0
e 68 214 17.0
e 68 303 89.0
e 68 102 11.0
e 68 199 94.0
e 68 313 67.0
e 68 130 88.0
e 68 119 24.0
e 68 79 79.0
e 68 128 90.0
e 68 207 83.0
e 69 259 1.0
e 70 18 3.0
e 71 20 45.0
e 71 19 69.0
e 71 306 9.0
e 71 64 49.0
e 71 303 88.0
e 71 199 28.0
e 71 10 14.0
e 71 67 43.0
e 71 143 30.0
e 71 150 46.0
e 71 34 84.0
e 71 120 73.0
e 71 146 26.0
e 71 207 10.0
e 71 239 51.0
e 71 73 55.0
e 71 205 38.0
e 71 233 65.0
e 71 262 4.0
e 71 52 19.0
e 71 309 36.0
e 71 193 57.0
e 71 226 83.0
e 71 235 38.0
e 71 96 44.0
e 71 12 11.0
e 71 236 72.0
e 71 304 17.0
e 71 151 64.0
e 71 100 18.0
e 71 225 23.0
e 71 240 45.0
e 71 245 84.0
e 71 84 52.0
e 71 183 86.0
e 72 47 2.0
e 73 77 1.0
e 74 286 25.0
e 74 68 62.0
e 74 213 1.0
e 74 257 16.0
e 74 190 10.0
e 74 29 1.0
e 74 39 14.0
e 74 264 1.0
e 74 72 14.0
e 74 146 5.0
e 75 133 4.0
e 75 117 3.0
e 76 94 1.0
e 77 197 1.0
e 80 32 69.0
e 80 164 39.0
e 80 239 69.0
e 80 7 66.0
e 80 116 21.0
e 80 120 8.0
e 80 275 90.0
e 80 202 12.0
e 80 259 62.0
e 80 157 29.0
e 80 52 48.0
e 80 206 8.0
e 80 243 40.0
e 80 168 53.0
e 80 125 61.0
e 80 44 36.0
e 80 121 76.0
e 80 314 59.0
e 80 228 65.0
e 80 183 53.0
e 80 41 22.0
e 80 272 11.0
e 80 280 68.0
e 80 81 77.0
e 80 147 37.0
e 80 34 19.0
e 80 51 58.0
e 80 236 90.0
e 80 258 49.0
e 80 35 38.0
e 80 240 11.0
e 80 16 17.0
e 80 251 21.0
e 80 247 26.0
e 80 283 3.0
e 80 315 92.0
e 81 52 71.0
e 81 187 26.0
e 81 20 17.0
e 81 4 69.0
e 81 21 7.0
e 81 291 63.0
e 81 61 81.0
e 81 203 41.0
e 81 161 44.0
e 81 219 61.0
e 81 173 85.0
e 81 188 5.0
e 81 56 41.0
e 81 106 23.0
e 81 227 36.0
e 81 252 2.0
e 81 96 58.0
e 81 199 13.0
e 81 139 1.0
e 81 60 30.0
e 81 145 61.0
e 81 175 83.0
e 81 171 83.0
e 81 255 48.0
e 81 85 23.0
e 81 315 74.0
e 81 103 75.0
e 81 209 61.0
e 81 235 51.0
e 81 23 95.0
e 81 162 65.0
e 81 164 15.0
e 81 13 16.0
e 81 134 17.0
e 82 254 5.0
e 82 78 1.0
e 84 130 77.0
e 84 302 98.0
e 84 73 91.0
e 84 208 18.0
e 84 164 42.0
e 84 163 34.0
e 84 25 81.0
e 84 40 56.0
e 84 197 30.0
e 84 277 43.0
e 84 214 11.0
e 84 275 17.0
e 84 187 45.0
e 84 167 40.0
e 84 13 98.0
e 84 11 22.0
e 84 126 51.0
e 84 178 67.0
e 84 85 29.0
e 84 244 6.0
e 84 166 80.0
e 84 268 76.0
e 84 58 4.0
e 84 138 82.0
e 84 66 35.0
e 84 242 6.0
e 84 285 56.0
e 84 55 88.0
e 84 282 100.0
e 84 16 39.0
e 84 231 20.0
e 84 7 2.0
e 84 308 52.0
e 86 313 10.0
e 86 309 3.0
e 86 307 5.0
e 86 171 1.0
e 86 91 2.0
e 88 284 5.0
e 88 233 7.0
e 89 52 5.0
e 89 134 1.0
e 93 26 1.0
e 95 246 2.0
e 96 94 7.0
e 96 208 3.0
e 96 19 8.0
e 98 65 8.0
e 98 54 89.0
e 98 8 53.0
e 98 287 68.0
e 98 124 50.0
e 98 120 5.0
e 98 4 90.0
e 98 74 60.0
e 98 30 84.0
e 98 18 24.0
e 98 185 56.0
e 98 80 99.0
e 98 107 72.0
e 98 315 45.0
e 98 96 31.0
e 98 42 16.0
e 98 285 22.0
e 98 257 77.0
e 98 150 51.0
e 98 15 34.0
e 98 168 9.0
e 98 89 78.0
e 98 141 51.0
e 98 23 52.0
e 98 6 99.0
e 98 289 49.0
e 98 316 99.0
e 98 184 91.0
e 98 247 61.0
e 98 273 28.0
e 98 121 13.0
e 98 155 31.0
e 98 218 63.0
e 98 226 67.0
e 98 132 37.0
e 98 266 59.0
e 99 220 5.0
e 99 22 2.0
e 102 254 57.0
e 102 21 74.0
e 102 236 2.0
e 102 64 29.0
e 102 43 53.0
e 102 195 39.0
e 102 175 76.0
e 102 67 1.0
e 102 174 73.0
e 102 110 19.0
e 102 218 35.0
e 102 249 83.0
e 102 176 30.0
e 102 132 72.0
e 102 152 75.0
e 102 171 68.0
e 102 290 58.0
e 102 221 89.0
e 102 155 72.0
e 102 107 84.0
e 102 0 98.0
e 102 44 50.0
e 102 250 57.0
e 102 303 100.0
e 102 255 54.0
e 102 88 47.0
e 102 160 65.0
e 102 121 69.0
e 102 277 9.0
e 102 96 58.0
e 102 186 99.0
e 102 97 62.0
e 102 182 43.0
e 102 9 35.0
e 102 222 71.0
e 103 242 6.0
e 104 290 1.0
e 104 130 1.0
e 105 286 1.0
e 105 63 1.0
e 108 88 2.0
e 108 126 6.0
e 109 69 2.0
e 109 91 7.0
e 109 277 7.0
e 109 158 11.0
e 110 288 1.0
e 112 182 2.0
e 114 20 1.0
e 114 181 9.0
e 114 147 84.0
e 114 7 12.0
e 115 16 1.0
e 115 150 1.0
e 117 0 8.0
e 117 316 8.0
e 117 133 1.0
e 117 35 2.0
e 119 112 1.0
e 122 47 1.0
e 122 116 2.0
e 122 19 7.0
e 122 154 2.0
e 122 146 6.0
e 123 297 2.0
e 124 166 6.0
e 125 150 4.0
e 125 39 21.0
e 125 221 2.0
e 125 260 3.0
e 125 280 6.0
e 125 181 19.0
e 125 179 19.0
e 125 239 19.0
e 129 272 9.0
e 129 91 6.0
e 129 18 2.0
e 129 176 17.0
e 131 56 3.0
e 132 86 11.0
e 132 77 3.0
e 134 175 9.0
e 134 31 2.0
e 135 56 3.0
e 137 212 11.0
e 137 50 4.0
e 141 220 2.0
e 141 267 3.0
e 142 217 14.0
e 142 248 1.0
e 142 1 9.0
e 142 222 10.0
e 143 160 7.0
e 143 209 10.0
e 144 83 1.0
e 144 40 18.0
e 144 54 8.0
e 144 119 10.0
e 144 46 2.0
e 144 131 4.0
e 144 184 6.0
e 144 45 22.0
e 144 109 13.0
e 144 301 12.0
e 147 81 29.0
e 147 44 70.0
e 147 124 25.0
e 147 197 31.0
e 147 148 85.0
e 147 166 74.0
e 147 269 12.0
e 147 66 56.0
e 147 79 13.0
e 147 257 42.0
e 147 15 18.0
e 147 52 8.0
e 147 261 99.0
e 147 207 34.0
e 147 275 48.0
e 147 67 66.0
e 147 139 15.0
e 147 234 22.0
e 147 211 38.0
e 147 205 37.0
e 147 240 40.0
e 147 302 62.0
e 147 129 68.0
e 147 163 25.0
e 147 136 27.0
e 147 259 34.0
e 147 76 38.0
e 147 276 6.0
e 147 223 48.0
e 147 293 76.0
e 147 174 9.0
e 147 73 39.0
e 147 11 53.0
e 147 60 46.0
e 147 39 48.0
e 149 86 10.0
e 149 57 4.0
e 149 253 6.0
e 152 22 1.0
e 153 157 41.0
e 153 9 9.0
e 153 288 16.0
e 153 286 22.0
e 153 158 1.0
e 153 60 25.0
e 153 0 6.0
e 153 122 3.0
e 153 93 14.0
e 156 79 1.0
e 157 276 46.0
e 157 0 62.0
e 157 6 53.0
e 157 94 81.0
e 157 174 87.0
e 157 201 5.0
e 157 144 72.0
e 157 284 15.0
e 157 147 54.0
e 157 117 44.0
e 157 185 37.0
e 157 285 83.0
e 157 226 90.0
e 157 313 37.0
e 157 2 31.0
e 157 286 40.0
e 157 287 19.0
e 157 180 14.0
e 157 170 42.0
e 157 1 57.0
e 157 11 58.0
e 157 96 48.0
e 157 35 28.0
e 157 12 48.0
e 157 290 21.0
e 157 294 37.0
e 157 51 72.0
e 157 156 85.0
e 157 277 2.0
e 157 128 17.0
e 157 250 25.0
e 157 92 37.0
e 157 234 37.0
e 159 164 20.0
e 160 73 7.0
e 160 106 11.0
e 161 66 82.0
e 161 220 1.0
e 162 218 1.0
e 163 185 1.0
e 163 212 6.0
e 163 112 8.0
e 164 168 16.0
e 164 127 23.0
e 164 228 23.0
e 164 201 7.0
e 165 203 75.0
e 169 150 16.0
e 169 131 22.0
e 169 96 10.0
e 169 59 16.0
e 169 16 19.0
e 169 209 7.0
e 169 65 76.0
e 169 265 17.0
e 169 134 11.0
e 172 304 1.0
e 172 75 1.0
e 173 27 3.0
e 176 58 46.0
e 176 34 87.0
e 176 153 98.0
e 176 135 68.0
e 176 123 89.0
e 176 47 63.0
e 176 289 37.0
e 176 73 35.0
e 176 97 36.0
e 176 259 35.0
e 176 75 89.0
e 176 4 46.0
e 176 79 28.0
e 176 39 19.0
e 176 33 34.0
e 176 81 46.0
e 176 262 98.0
e 176 103 95.0
e 176 99 53.0
e 176 26 65.0
e 176 15 29.0
e 176 40 2.0
e 176 189 97.0
e 176 54 78.0
e 176 185 22.0
e 176 232 53.0
e 176 245 31.0
e 176 182 20.0
e 176 290 24.0
e 176 269 16.0
e 176 105 5.0
e 176 82 51.0
e 177 98 26.0
e 177 144 7.0
e 178 123 1.0
e 179 296 2.0
e 180 23 12.0
e 180 146 8.0
e 183 132 7.0
e 183 276 1.0
e 183 300 5.0
e 183 303 21.0
e 183 296 13.0
e 183 138 21.0
e 183 275 8.0
e 183 67 6.0
e 186 217 1.0
e 186 69 5.0
e 188 48 1.0
e 189 143 5.0
e 191 164 2.0
e 191 220 11.0
e 191 186 6.0
e 191 224 10.0
e 191 15 3.0
e 191 215 2.0
e 191 263 8.0
e 191 236 5.0
e 192 211 3.0
e 192 181 1.0
e 192 169 2.0
e 194 141 87.0
e 194 199 6.0
e 194 98 13.0
e 194 211 90.0
e 194 123 60.0
e 194 197 59.0
e 194 255 36.0
e 194 223 89.0
e 194 50 71.0
e 194 287 1.0
e 194 39 81.0
e 194 175 16.0
e 194 132 32.0
e 194 78 61.0
e 194 261 38.0
e 194 167 43.0
e 194 79 94.0
e 194 20 73.0
e 194 145 12.0
e 194 109 45.0
e 194 198 4.0
e 194 299 24.0
e 194 270 69.0
e 194 203 95.0
e 194 221 40.0
e 194 113 11.0
e 194 125 12.0
e 194 233 94.0
e 194 176 12.0
e 194 168 60.0
e 194 159 11.0
e 194 318 10.0
e 194 234 80.0
e 194 28 98.0
e 194 46 38.0
e 194 140 13.0
e 199 225 96.0
e 199 279 23.0
e 199 275 72.0
e 199 293 80.0
e 199 308 75.0
e 199 40 68.0
e 199 50 93.0
e 199 37 60.0
e 199 1 97.0
e 199 77 34.0
e 199 59 57.0
e 199 307 3.0
e 199 257 14.0
e 199 141 19.0
e 199 167 22.0
e 199 117 35.0
e 199 119 33.0
e 199 159 10.0
e 199 161 63.0
e 199 82 84.0
e 199 56 88.0
e 199 156 72.0
e 199 237 5.0
e 199 113 11.0
e 199 289 52.0
e 199 25 29.0
e 199 93 95.0
e 199 92 67.0
e 199 235 71.0
e 200 276 18.0
e 200 304 21.0
e 200 69 6.0
e 200 233 9.0
e 200 312 2.0
e 200 206 14.0
e 200 83 9.0
e 200 258 18.0
e 200 277 21.0
e 200 196 7.0
e 201 308 8.0
e 201 169 1.0
e 202 96 6.0
e 203 296 80.0
e 203 251 40.0
e 203 6 95.0
e 203 304 58.0
e 203 158 88.0
e 203 131 38.0
e 203 138 67.0
e 203 36 1.0
e 203 182 28.0
e 203 82 24.0
e 203 192 34.0
e 203 90 86.0
e 203 25 79.0
e 203 46 59.0
e 203 216 33.0
e 203 273 67.0
e 203 290 87.0
e 203 278 59.0
e 203 222 1.0
e 203 306 14.0
e 203 93 57.0
e 203 129 78.0
e 203 257 39.0
e 203 123 49.0
e 203 58 65.0
e 203 5 94.0
e 203 105 89.0
e 203 164 68.0
e 203 116 31.0
e 203 195 87.0
e 203 160 55.0
e 203 159 5.0
e 203 70 71.0
e 204 223 1.0
e 204 148 1.0
e 206 62 2.0
e 210 57 3.0
e 210 168 2.0
e 212 299 4.0
e 212 75 1.0
e 212 69 12.0
e 214 105 4.0
e 216 205 4.0
e 216 133 3.0
e 217 246 13.0
e 217 289 6.0
e 217 247 17.0
e 217 39 4.0
e 217 278 5.0
e 217 263 2.0
e 217 47 20.0
e 221 0 65.0
e 221 302 56.0
e 221 18 80.0
e 221 32 5.0
e 221 246 33.0
e 221 210 89.0
e 221 192 35.0
e 221 72 63.0
e 221 165 15.0
e 221 275 80.0
e 221 157 75.0
e 221 91 17.0
e 221 314 83.0
e 221 35 26.0
e 221 133 95.0
e 221 53 88.0
e 221 269 45.0
e 221 137 3.0
e 221 61 84.0
e 221 224 48.0
e 221 50 11.0
e 221 103 68.0
e 221 92 19.0
e 221 313 84.0
e 221 62 8.0
e 221 196 11.0
e 221 203 82.0
e 221 33 30.0
e 221 27 62.0
e 221 317 41.0
e 221 181 61.0
e 221 304 80.0
e 221 195 35.0
e 221 138 36.0
e 227 35 3.0
e 227 122 1.0
e 229 98 67.0
e 230 38 1.0
e 230 281 1.0
e 233 61 34.0
e 233 212 49.0
e 233 198 12.0
e 233 269 18.0
e 233 9 7.0
e 233 104 25.0
e 233 139 6.0
e 233 72 29.0
e 233 264 31.0
e 233 41 21.0
e 233 108 18.0
e 233 87 26.0
e 233 287 100.0
e 233 253 49.0
e 233 295 12.0
e 237 130 1.0
e 238 15 66.0
e 238 5 35.0
e 238 263 78.0
e 238 230 51.0
e 238 141 86.0
e 238 69 20.0
e 238 203 10.0
e 238 49 28.0
e 238 156 92.0
e 238 299 33.0
e 238 114 51.0
e 238 221 29.0
e 238 157 23.0
e 238 293 87.0
e 238 125 15.0
e 238 301 67.0
e 238 112 66.0
e 238 159 66.0
e 238 195 100.0
e 238 59 2.0
e 238 318 42.0
e 238 50 59.0
e 238 31 39.0
e 238 192 85.0
e 238 134 36.0
e 238 113 65.0
e 238 256 14.0
e 238 274 81.0
e 238 132 17.0
e 238 47 15.0
e 238 128 6.0
e 238 92 94.0
e 238 6 59.0
e 238 207 86.0
e 238 205 71.0
e 241 108 38.0
e 241 50 6.0
e 241 306 20.0
e 241 240 23.0
e 241 175 31.0
e 241 272 29.0
e 241 257 17.0
e 241 13 9.0
e 241 261 1.0
e 241 99 41.0
e 241 81 79.0
e 241 14 19.0
e 241 281 7.0
e 241 180 17.0
e 241 300 4.0
e 241 142 44.0
e 241 181 28.0
e 241 3 47.0
e 242 45 39.0
e 242 249 32.0
e 242 247 40.0
e 242 143 20.0
e 242 86 33.0
e 242 133 17.0
e 242 177 3.0
e 242 106 48.0
e 242 207 10.0
e 242 312 40.0
e 242 157 36.0
e 242 265 28.0
e 242 73 33.0
e 242 282 45.0
e 242 62 17.0
e 242 28 19.0
e 244 50 3.0
e 248 49 3.0
e 248 130 4.0
e 249 66 48.0
e 271 301 8.0
e 271 109 6.0
e 271 267 1.0
e 273 176 1.0
e 274 216 5.0
e 279 284 5.0
e 279 212 16.0
e 279 297 6.0
e 279 221 91.0
e 279 49 14.0
e 279 259 10.0
e 279 116 24.0
e 279 187 8.0
e 283 31 3.0
e 287 120 63.0
e 287 168 36.0
e 287 57 37.0
e 287 93 57.0
e 287 312 64.0
e 287 16 51.0
e 287 161 15.0
e 287 124 5.0
e 287 197 79.0
e 287 24 38.0
e 287 200 84.0
e 287 243 5.0
e 287 265 1.0
e 287 82 72.0
e 287 282 27.0
e 287 183 61.0
e 287 181 18.0
e 287 41 39.0
e 287 75 97.0
e 287 127 100.0
e 287 310 84.0
e 287 12 26.0
e 287 85 8.0
e 287 76 22.0
e 287 113 81.0
e 287 277 77.0
e 287 285 4.0
e 287 36 58.0
e 287 151 23.0
e 287 19 52.0
e 287 220 19.0
e 287 51 30.0
e 287 109 34.0
e 291 299 2.0
e 291 178 7.0
e 291 179 4.0
e 291 203 99.0
e 292 286 1.0
e 295 74 15.0
e 298 35 1.0
e 298 186 4.0
e 302 182 24.0
e 302 216 10.0
e 302 313 9.0
e 302 86 13.0
e 302 58 1.0
e 302 4 19.0
e 302 294 17.0
e 305 104 11.0
e 305 39 4.0
e 305 230 6.0
e 305 193 5.0
e 305 175 11.0
e 310 17 7.0
e 310 272 5.0
e 313 84 19.0
e 313 19 17.0
e 313 107 6.0
e 313 46 4.0
e 313 59 7.0
e 315 41 2.0
e 317 194 18.0
e 319 40 1.0
